language ESSENCE' 1.0
letting lastdx=98
letting cage be [
[40,16,7,16,6,15,6,15,7,14,7],
[19,9,9,9,8,0,0, 0,0, 0,0],
[12,5,14,0,0, 0,0, 0,0, 0,0],
[18,2,3,2,4,2,5,0,0, 0,0],
[14,6,14,7,14,0,0, 0,0, 0,0],
[36,13,16,13,15,13,14,14,14,14,13],
[5,2,8,0,0, 0,0, 0,0, 0,0],
[39,1,5,1,6,2,6,0,0, 0,0],
[5,15,14,0,0, 0,0, 0,0, 0,0],
[3,12,13,0,0, 0,0, 0,0, 0,0],
[12,7,4,0,0, 0,0, 0,0, 0,0],
[24,9,12,9,11,9,10,0,0, 0,0],
[20,8,2,8,3,0,0, 0,0, 0,0],
[1,1,9,0,0, 0,0, 0,0, 0,0],
[1,11,10,0,0, 0,0, 0,0, 0,0],
[21,7,1,7,2,6,2,0,0, 0,0],
[3,7,3,0,0, 0,0, 0,0, 0,0],
[16,14,6,13,6,0,0, 0,0, 0,0],
[21,15,13,15,12,0,0, 0,0, 0,0],
[42,7,7,6,7,6,6,5,6,4,6],
[46,12,2,12,1,13,1,13,2,14,2],
[15,10,4,10,5,0,0, 0,0, 0,0],
[39,8,10,7,10,7,9,7,11,0,0],
[7,7,5,7,6,0,0, 0,0, 0,0],
[42,12,8,11,8,11,9,12,9,0,0],
[13,13,8,0,0, 0,0, 0,0, 0,0],
[51,6,4,6,3,5,3,5,4,0,0],
[32,14,15,15,15,16,15,16,14,0,0],
[6,4,4,0,0, 0,0, 0,0, 0,0],
[9,15,1,14,1,0,0, 0,0, 0,0],
[5,15,4,15,5,0,0, 0,0, 0,0],
[9,10,6,0,0, 0,0, 0,0, 0,0],
[16,3,16,3,15,0,0, 0,0, 0,0],
[26,1,7,1,8,0,0, 0,0, 0,0],
[9,12,16,0,0, 0,0, 0,0, 0,0],
[1,4,7,0,0, 0,0, 0,0, 0,0],
[11,9,15,8,15,0,0, 0,0, 0,0],
[51,11,5,12,5,12,6,12,7,13,7],
[16,11,2,0,0, 0,0, 0,0, 0,0],
[14,3,14,0,0, 0,0, 0,0, 0,0],
[16,10,8,10,9,10,10,10,11,0,0],
[17,14,9,13,9,0,0, 0,0, 0,0],
[19,9,7,8,7,0,0, 0,0, 0,0],
[16,9,6,0,0, 0,0, 0,0, 0,0],
[39,1,1,1,2,2,2,3,2,0,0],
[26,13,4,13,5,14,5,14,4,0,0],
[34,2,10,1,10,1,11,0,0, 0,0],
[8,16,2,16,1,0,0, 0,0, 0,0],
[16,10,16,0,0, 0,0, 0,0, 0,0],
[18,12,3,11,3,11,4,12,4,0,0],
[9,1,13,1,12,0,0, 0,0, 0,0],
[28,1,14,1,15,2,15,2,16,1,16],
[26,11,7,10,7,11,6,0,0, 0,0],
[37,4,10,4,11,4,12,0,0, 0,0],
[11,10,12,0,0, 0,0, 0,0, 0,0],
[39,7,15,7,16,6,16,6,15,0,0],
[22,4,14,4,13,0,0, 0,0, 0,0],
[9,11,1,0,0, 0,0, 0,0, 0,0],
[10,4,3,0,0, 0,0, 0,0, 0,0],
[23,2,14,2,13,0,0, 0,0, 0,0],
[17,6,11,6,10,0,0, 0,0, 0,0],
[32,11,11,11,12,11,13,11,14,0,0],
[23,5,8,5,7,4,8,0,0, 0,0],
[22,12,11,12,10,0,0, 0,0, 0,0],
[31,14,8,15,8,15,9,15,10,0,0],
[48,8,13,9,13,10,13,10,14,10,15],
[30,7,13,6,13,5,13,0,0, 0,0],
[24,5,1,6,1,5,2,4,2,0,0],
[21,14,3,13,3,0,0, 0,0, 0,0],
[22,12,15,12,14,0,0, 0,0, 0,0],
[25,6,5,5,5,0,0, 0,0, 0,0],
[41,16,9,16,8,16,10,16,11,0,0],
[10,3,5,4,5,0,0, 0,0, 0,0],
[17,16,12,16,13,0,0, 0,0, 0,0],
[27,2,12,2,11,3,11,3,10,0,0],
[39,14,11,14,10,14,12,15,11,0,0],
[3,9,5,0,0, 0,0, 0,0, 0,0],
[18,11,16,11,15,0,0, 0,0, 0,0],
[14,8,12,8,11,0,0, 0,0, 0,0],
[23,8,14,9,14,0,0, 0,0, 0,0],
[23,9,4,9,3,0,0, 0,0, 0,0],
[24,9,1,8,1,9,2,0,0, 0,0],
[8,5,15,5,16,0,0, 0,0, 0,0],
[28,10,3,10,2,10,1,0,0, 0,0],
[33,3,1,2,1,4,1,0,0, 0,0],
[4,9,16,8,16,0,0, 0,0, 0,0],
[19,1,3,1,4,0,0, 0,0, 0,0],
[27,2,7,3,7,3,6,0,0, 0,0],
[31,2,9,3,9,3,8,0,0, 0,0],
[13,3,3,3,4,0,0, 0,0, 0,0],
[13,3,12,3,13,0,0, 0,0, 0,0],
[21,4,15,4,16,0,0, 0,0, 0,0],
[24,6,12,7,12,0,0, 0,0, 0,0],
[11,8,4,0,0, 0,0, 0,0, 0,0],
[17,8,5,8,6,0,0, 0,0, 0,0],
[12,14,16,0,0, 0,0, 0,0, 0,0],
[10,15,2,0,0, 0,0, 0,0, 0,0],
[46,15,3,16,3,16,4,16,5,0,0],
[22,15,16,16,16,0,0, 0,0, 0,0]
]
